256
282
392
148
257
296
547
194
315
291
262
274
539
172
310
204
219
335
456
229
353
203
296
416
315
325
144
279
218
337
334
259
297
305
237
288
142
230
261
193
369
287
276
291
289
332
602
326
528
265
391
179
402
176
162
231
287
320
172
149
149
202
274
264
286
290
183
277
210
233
247
499
202
153
490
532
218
321
218
224
294
291
186
447
304
197
345
220
177
339
670
355
486
373
218
281
523
335
290
259
